     Program PWSCF v.5.4.0 starts on 12May2018 at  8:24:47

     Current dimensions of program PWSCF are:
     Max number of different atomic species (ntypx) = 10
     Max number of k-points (npk) =  40000
     Max angular momentum in pseudopotentials (lmaxx) =  3
               file Sn.pbesol-dn-rrkjus.UPF: wavefunction(s)  5S 4D renormalized
               file O.pbesol-nl-rrkjus.UPF: wavefunction(s)  2S renormalized

     Subspace diagonalization in iterative solution of the eigenvalue problem:
     a serial algorithm will be used

     Found symmetry operation: I + ( -0.5000  0.0000  0.0000)
     This is a supercell, fractional translations are disabled

     bravais-lattice index     =            0
     lattice parameter (alat)  =      17.9500  a.u.
     unit-cell volume          =    3892.3190 (a.u.)^3
     number of atoms/cell      =           48
     number of atomic types    =            2
     number of electrons       =       416.00
     number of Kohn-Sham states=          256
     kinetic-energy cutoff     =      60.0000  Ry
     charge density cutoff     =     600.0000  Ry
     convergence threshold     =      2.0E-09
     mixing beta               =       0.7000
     number of iterations used =            8  plain     mixing
     Exchange-correlation      = PBESOL ( 1  4 10  8 0 0)

     celldm(1)=  17.950000  celldm(2)=   0.000000  celldm(3)=   0.000000
     celldm(4)=   0.000000  celldm(5)=   0.000000  celldm(6)=   0.000000

     crystal axes: (cart. coord. in units of alat)
               a(1) = (   1.000000   0.000000   0.000000 )
               a(2) = (   0.000000   1.000000   0.000000 )
               a(3) = (   0.000000   0.000000   0.673000 )

     reciprocal axes: (cart. coord. in units 2 pi/alat)
               b(1) = (  1.000000  0.000000  0.000000 )
               b(2) = (  0.000000  1.000000  0.000000 )
               b(3) = (  0.000000  0.000000  1.485884 )

     PseudoPot. # 1 for Sn read from file:
     /home/raja/pseudo/Sn.pbesol-dn-rrkjus.UPF
     MD5 check sum: b150398e14deaf400293d9009fcc5675
     Pseudo is Ultrasoft + core correction, Zval = 14.0
     Generated using "atomic" code by A. Dal Corso  v.5.4.0
     Using radial grid of 1243 points,  6 beta functions with:
                l(1) =   0
                l(2) =   0
                l(3) =   1
                l(4) =   1
                l(5) =   2
                l(6) =   2
     Q(r) pseudized with 0 coefficients

     PseudoPot. # 2 for  O read from file:
     /home/raja/pseudo/O.pbesol-nl-rrkjus.UPF
     MD5 check sum: c80495934389d02e713646931b6a7a51
     Pseudo is Ultrasoft + core correction, Zval =  6.0
     Generated using "atomic" code by A. Dal Corso  v.5.4.0
     Using radial grid of 1095 points,  4 beta functions with:
                l(1) =   0
                l(2) =   0
                l(3) =   1
                l(4) =   1
     Q(r) pseudized with 0 coefficients

     atomic species   valence    mass     pseudopotential
        Sn            14.00   118.71000     Sn( 1.00)
        O              6.00    15.99900      O( 1.00)

      8 Sym. Ops., with inversion, found

   Cartesian axes

     site n.     atom                  positions (alat units)
         1           Sn  tau(   1) = (   0.0000000   0.0000000   0.0000000  )
         2           Sn  tau(   2) = (   0.5000000   0.0000000   0.0000000  )
         3           Sn  tau(   3) = (   0.0000000   0.5000000   0.0000000  )
         4           Sn  tau(   4) = (   0.5000000   0.5000000   0.0000000  )
         5           Sn  tau(   5) = (   0.0000000   0.0000000   0.3365000  )
         6           Sn  tau(   6) = (   0.5000000   0.0000000   0.3365000  )
         7           Sn  tau(   7) = (   0.0000000   0.5000000   0.3365000  )
         8           Sn  tau(   8) = (   0.5000000   0.5000000   0.3365000  )
         9           Sn  tau(   9) = (   0.2500000   0.2500000   0.1682500  )
        10           Sn  tau(  10) = (   0.7500000   0.2500000   0.1682500  )
        11           Sn  tau(  11) = (   0.2500000   0.7500000   0.1682500  )
        12           Sn  tau(  12) = (   0.7500000   0.7500000   0.1682500  )
        13           Sn  tau(  13) = (   0.2500000   0.2500000   0.5047500  )
        14           Sn  tau(  14) = (   0.7500000   0.2500000   0.5047500  )
        15           Sn  tau(  15) = (   0.2500000   0.7500000   0.5047500  )
        16           Sn  tau(  16) = (   0.7500000   0.7500000   0.5047500  )
        17           O   tau(  17) = (   0.1535000   0.1535000   0.0000000  )
        18           O   tau(  18) = (   0.6535000   0.1535000   0.0000000  )
        19           O   tau(  19) = (   0.1535000   0.6535000   0.0000000  )
        20           O   tau(  20) = (   0.6535000   0.6535000   0.0000000  )
        21           O   tau(  21) = (   0.1535000   0.1535000   0.3365000  )
        22           O   tau(  22) = (   0.6535000   0.1535000   0.3365000  )
        23           O   tau(  23) = (   0.1535000   0.6535000   0.3365000  )
        24           O   tau(  24) = (   0.6535000   0.6535000   0.3365000  )
        25           O   tau(  25) = (   0.3465000   0.3465000   0.0000000  )
        26           O   tau(  26) = (   0.8465000   0.3465000   0.0000000  )
        27           O   tau(  27) = (   0.3465000   0.8465000   0.0000000  )
        28           O   tau(  28) = (   0.8465000   0.8465000   0.0000000  )
        29           O   tau(  29) = (   0.3465000   0.3465000   0.3365000  )
        30           O   tau(  30) = (   0.8465000   0.3465000   0.3365000  )
        31           O   tau(  31) = (   0.3465000   0.8465000   0.3365000  )
        32           O   tau(  32) = (   0.8465000   0.8465000   0.3365000  )
        33           O   tau(  33) = (   0.0965000   0.4035000   0.1682500  )
        34           O   tau(  34) = (   0.5965000   0.4035000   0.1682500  )
        35           O   tau(  35) = (   0.0965000   0.9035000   0.1682500  )
        36           O   tau(  36) = (   0.5965000   0.9035000   0.1682500  )
        37           O   tau(  37) = (   0.0965000   0.4035000   0.5047500  )
        38           O   tau(  38) = (   0.5965000   0.4035000   0.5047500  )
        39           O   tau(  39) = (   0.0965000   0.9035000   0.5047500  )
        40           O   tau(  40) = (   0.5965000   0.9035000   0.5047500  )
        41           O   tau(  41) = (   0.4035000   0.0965000   0.1682500  )
        42           O   tau(  42) = (   0.9035000   0.0965000   0.1682500  )
        43           O   tau(  43) = (   0.4035000   0.5965000   0.1682500  )
        44           O   tau(  44) = (   0.9035000   0.5965000   0.1682500  )
        45           O   tau(  45) = (   0.4035000   0.0965000   0.5047500  )
        46           O   tau(  46) = (   0.9035000   0.0965000   0.5047500  )
        47           O   tau(  47) = (   0.4035000   0.5965000   0.5047500  )
        48           O   tau(  48) = (   0.9035000   0.5965000   0.5047500  )

     number of k points=    18
                       cart. coord. in units 2pi/alat
        k(    1) = (   0.1250000   0.1250000   0.1238237), wk =   0.0833333
        k(    2) = (   0.1250000   0.1250000   0.3714710), wk =   0.0833333
        k(    3) = (   0.1250000   0.1250000   0.6191184), wk =   0.0833333
        k(    4) = (   0.1250000   0.3750000   0.1238237), wk =   0.1666667
        k(    5) = (   0.1250000   0.3750000   0.3714710), wk =   0.1666667
        k(    6) = (   0.1250000   0.3750000   0.6191184), wk =   0.1666667
        k(    7) = (   0.3750000   0.3750000   0.1238237), wk =   0.0833333
        k(    8) = (   0.3750000   0.3750000   0.3714710), wk =   0.0833333
        k(    9) = (   0.3750000   0.3750000   0.6191184), wk =   0.0833333
        k(   10) = (  -0.1250000   0.1250000  -0.1238237), wk =   0.0833333
        k(   11) = (  -0.1250000   0.1250000  -0.3714710), wk =   0.0833333
        k(   12) = (  -0.1250000   0.1250000  -0.6191184), wk =   0.0833333
        k(   13) = (  -0.1250000   0.3750000  -0.1238237), wk =   0.1666667
        k(   14) = (  -0.1250000   0.3750000  -0.3714710), wk =   0.1666667
        k(   15) = (  -0.1250000   0.3750000  -0.6191184), wk =   0.1666667
        k(   16) = (  -0.3750000   0.3750000  -0.1238237), wk =   0.0833333
        k(   17) = (  -0.3750000   0.3750000  -0.3714710), wk =   0.0833333
        k(   18) = (  -0.3750000   0.3750000  -0.6191184), wk =   0.0833333

     Largest allocated arrays     est. size (Mb)     dimensions
     Largest temporary arrays     est. size (Mb)     dimensions

     Initial potential from superposition of free atoms

     starting charge  415.97986, renormalised to  416.00000
     Starting wfc are  272 randomized atomic wfcs

     Self-consistent Calculation

     iteration #  1     ecut=    60.00 Ry     beta=0.70
     Davidson diagonalization with overlap
     ethr =  1.00E-02,  avg # of iterations =  3.1

     total energy              =   -3632.60708507 Ry
     Harris-Foulkes estimate   =   -3641.58170407 Ry
     estimated scf accuracy    <      11.97632812 Ry

[...]

     total energy              =   -3638.19442370 Ry
     Harris-Foulkes estimate   =   -3638.19442372 Ry
     estimated scf accuracy    <       0.00000004 Ry

     iteration # 10     ecut=    60.00 Ry     beta=0.70
     Davidson diagonalization with overlap
     ethr =  8.65E-12,  avg # of iterations =  2.9

     End of self-consistent calculation

          k = 0.1250 0.1250 0.1238 ( 30546 PWs)   bands (ev):

   -11.6889 -11.6227 -11.6226 -11.6034 -11.6034 -11.4888 -11.4772 -11.4529
   -11.4525 -11.4401 -11.4322 -11.4322 -11.4247 -11.2834 -11.2834 -11.0060
   -10.9831 -10.9619 -10.9295 -10.8657 -10.7186 -10.7186 -10.7017 -10.7017
   -10.6980 -10.6980 -10.6839 -10.6816 -10.6786 -10.6761 -10.6732 -10.6732
   -10.6708 -10.6517 -10.6478 -10.6405 -10.6405 -10.6308 -10.6308 -10.5818
   -10.5296 -10.5296 -10.5296 -10.5265 -10.5260 -10.5260 -10.5260 -10.5244
   -10.5236 -10.4934 -10.4934 -10.4826 -10.4793 -10.4769 -10.4769 -10.4738
   -10.4635 -10.4635 -10.4633 -10.4629 -10.4626 -10.4613 -10.4613 -10.4461
   -10.4314 -10.4238 -10.4237 -10.4223 -10.4223 -10.4189 -10.4178 -10.4166
   -10.4160 -10.4159 -10.4156 -10.4147 -10.4125 -10.4125 -10.4085 -10.4085
    -9.4608  -8.8740  -8.8740  -8.5214  -8.5214  -8.1085  -8.1022  -8.1022
    -8.0708  -7.9878  -7.9878  -7.7176  -7.6821  -7.6752  -7.6075  -7.6026
    -7.6020  -7.5419  -7.2864  -6.7608  -6.7608  -6.4088  -6.4088  -6.2272
    -6.1793  -6.1502  -6.1098  -5.9707  -5.9707  -5.9374  -5.9374  -5.8870
     1.2497   1.3589   1.4151   1.8210   2.2131   2.2131   2.4003   2.4063
     2.4064   2.4561   2.4561   3.1754   3.1754   3.5515   3.8049   3.8064
     3.8064   3.9971   3.9971   4.3683   4.3688   5.0033   5.0837   5.0937
     5.0938   5.1573   5.1975   5.2015   5.2015   5.3018   5.4229   5.4494
     5.6302   5.7214   5.7695   5.7695   6.0670   6.1411   6.1411   6.2974
     6.3057   6.3745   6.3745   6.3990   6.7054   6.7770   6.8584   6.8584
     6.8861   7.0731   7.1086   7.2101   7.2101   7.2762   7.3584   7.4867
     7.5472   7.5621   7.5648   7.5648   7.6305   7.6305   7.7062   7.7062
     7.9597   8.0436   8.0675   8.0886   8.1237   8.1255   8.1255   8.1376
     8.1543   8.1544   8.1619   8.2396   8.2396   8.3275   8.3275   8.3899
     8.3970   8.4775   8.4913   8.5217   8.5323   8.5378   8.5378   8.5495
     8.6411   8.6487   8.6487   8.7079   8.7079   8.7924   8.7924   9.3320
    10.8053  13.2783  13.2783  13.9496  14.0849  14.0849  14.1013  14.1891
    14.2185  15.1565  15.2836  15.4563  15.4563  15.6508  15.6508  15.6733
    15.6754  15.6906  16.2933  16.2933  16.3684  16.3684  16.7329  16.7458
    17.2812  17.2812  17.5596  17.5596  18.0190  18.1859  18.4608  19.1286
    19.3976  19.7530  19.8756  20.0204  20.0204  20.0713  20.0945  20.0945
    20.0995  20.1203  20.1755  20.1756  20.1878  20.1878  20.2112  20.2411

[...]

          k = 0.3750 0.3750 0.6191 ( 30583 PWs)   bands (ev):

[...]

          k =-0.1250 0.1250-0.1238 ( 30546 PWs)   bands (ev):

[...]

          k =-0.3750 0.3750-0.6191 ( 30583 PWs)   bands (ev):

   -11.4611 -11.4505 -11.4505 -11.4457 -11.4268 -11.4173 -11.4173 -11.3784
   -11.2827 -11.2827 -11.2130 -11.2084 -11.2038 -11.1854 -11.1854 -11.1521
   -11.1405 -11.1119 -11.0605 -11.0605 -11.0120 -11.0084 -10.9857 -10.9857
   -10.8667 -10.8141 -10.8141 -10.8076 -10.7731 -10.7271 -10.7271 -10.6839
   -10.6026 -10.5978 -10.5978 -10.5962 -10.5728 -10.5680 -10.5680 -10.5674
   -10.5524 -10.5507 -10.5507 -10.5457 -10.5313 -10.5312 -10.5312 -10.5270
   -10.5046 -10.5003 -10.4961 -10.4961 -10.4959 -10.4958 -10.4958 -10.4894
   -10.4813 -10.4784 -10.4784 -10.4769 -10.4763 -10.4748 -10.4729 -10.4729
   -10.4688 -10.4667 -10.4667 -10.4628 -10.4606 -10.4585 -10.4570 -10.4570
   -10.4570 -10.4570 -10.4563 -10.4548 -10.4536 -10.4519 -10.4519 -10.4506
    -9.0119  -8.7853  -8.7816  -8.7816  -8.5838  -8.5838  -8.5300  -8.3523
    -7.6495  -7.6495  -7.5528  -7.5439  -7.5439  -7.5223  -7.3454  -7.2654
    -7.1076  -7.0659  -6.9140  -6.9140  -6.7198  -6.6820  -6.5942  -6.5942
    -6.3652  -6.2144  -6.1910  -6.1910  -6.1071  -6.1071  -6.1037  -6.0985
     1.6355   1.6517   1.9112   1.9112   2.0068   2.0279   2.0279   2.3006
     2.6640   3.0677   3.0677   3.1878   3.5077   3.5077   3.5260   3.9567
     4.3324   4.3467   4.3467   4.6807   4.8716   4.8717   4.9782   4.9876
     5.2293   5.2293   5.2732   5.2732   5.3881   5.4001   5.5778   5.5778
     5.6308   5.6650   5.7159   5.7465   5.8625   5.9434   5.9434   5.9571
     6.0713   6.1215   6.1444   6.1444   6.1508   6.2552   6.3603   6.3603
     6.3650   6.6211   6.6341   6.7526   6.7945   6.7945   6.9136   6.9136
     7.3214   7.3782   7.6053   7.6053   7.6627   7.6627   7.7438   7.8230
     7.8271   7.9077   7.9213   7.9843   7.9843   8.0311   8.0311   8.1360
     8.2101   8.2101   8.2338   8.2445   8.3724   8.3724   8.4059   8.4655
     8.4968   8.4968   8.4982   8.5180   8.5517   8.5640   8.5640   8.5872
     8.7697   8.7697   8.7731   8.7745   8.8710   8.9066   8.9066   8.9847
    13.1302  13.5810  13.5810  13.8491  13.9075  14.1662  14.1662  14.2275
    14.9361  15.0583  15.2492  15.2492  15.4788  15.4788  15.6194  15.8572
    17.3009  17.4102  17.5141  17.5141  17.5517  17.5517  17.6545  17.6619
    17.8276  17.8752  17.8752  17.9689  18.2452  18.2832  18.2832  18.3071
    18.3321  18.3511  18.4269  18.4269  18.4531  18.4531  18.5758  18.5894
    19.9003  19.9003  20.0426  20.0945  20.0945  20.2359  20.3457  20.4899

     highest occupied, lowest unoccupied level (ev):     9.3320   10.8053

!    total energy              =   -3638.19442371 Ry
     Harris-Foulkes estimate   =   -3638.19442371 Ry
     estimated scf accuracy    <          1.4E-09 Ry

     The total energy is the sum of the following terms:

     one-electron contribution =   -1017.32586949 Ry
     hartree contribution      =     834.97461854 Ry
     xc contribution           =   -1002.54654778 Ry
     ewald contribution        =   -2453.29662499 Ry

     convergence has been achieved in  10 iterations

     Forces acting on atoms (Ry/au):

     atom    1 type  1   force =     0.00000000    0.00000000    0.00000000
     atom    2 type  1   force =     0.00000000    0.00000000    0.00000000
     atom    3 type  1   force =     0.00000000    0.00000000    0.00000000
     atom    4 type  1   force =     0.00000000    0.00000000    0.00000000
     atom    5 type  1   force =     0.00000000    0.00000000    0.00000000
     atom    6 type  1   force =     0.00000000    0.00000000    0.00000000
     atom    7 type  1   force =     0.00000000    0.00000000    0.00000000
     atom    8 type  1   force =     0.00000000    0.00000000    0.00000000
     atom    9 type  1   force =    -0.00000025   -0.00000025   -0.00000336
     atom   10 type  1   force =     0.00000288   -0.00000288    0.00000213
     atom   11 type  1   force =    -0.00000288    0.00000288    0.00000213
     atom   12 type  1   force =     0.00000025    0.00000025   -0.00000336
     atom   13 type  1   force =    -0.00000025   -0.00000025    0.00000336
     atom   14 type  1   force =     0.00000288   -0.00000288   -0.00000213
     atom   15 type  1   force =    -0.00000288    0.00000288   -0.00000213
     atom   16 type  1   force =     0.00000025    0.00000025    0.00000336
     atom   17 type  2   force =    -0.00520064   -0.00520064    0.00000000
     atom   18 type  2   force =    -0.00519993   -0.00520028    0.00000000
     atom   19 type  2   force =    -0.00520028   -0.00519993    0.00000000
     atom   20 type  2   force =    -0.00520090   -0.00520090    0.00000000
     atom   21 type  2   force =    -0.00520065   -0.00520065    0.00000000
     atom   22 type  2   force =    -0.00520050   -0.00520071    0.00000000
     atom   23 type  2   force =    -0.00520071   -0.00520050   -0.00000000
     atom   24 type  2   force =    -0.00520037   -0.00520037    0.00000000
     atom   25 type  2   force =     0.00520090    0.00520090    0.00000000
     atom   26 type  2   force =     0.00520028    0.00519993    0.00000000
     atom   27 type  2   force =     0.00519993    0.00520028    0.00000000
     atom   28 type  2   force =     0.00520064    0.00520064    0.00000000
     atom   29 type  2   force =     0.00520037    0.00520037    0.00000000
     atom   30 type  2   force =     0.00520071    0.00520050   -0.00000000
     atom   31 type  2   force =     0.00520050    0.00520071    0.00000000
     atom   32 type  2   force =     0.00520065    0.00520065    0.00000000
     atom   33 type  2   force =     0.00519966   -0.00519993   -0.00000001
     atom   34 type  2   force =     0.00520057   -0.00520057    0.00000003
     atom   35 type  2   force =     0.00520020   -0.00520020   -0.00000025
     atom   36 type  2   force =     0.00519993   -0.00519966   -0.00000001
     atom   37 type  2   force =     0.00519966   -0.00519993    0.00000001
     atom   38 type  2   force =     0.00520057   -0.00520057   -0.00000003
     atom   39 type  2   force =     0.00520020   -0.00520020    0.00000025
     atom   40 type  2   force =     0.00519993   -0.00519966    0.00000001
     atom   41 type  2   force =    -0.00519993    0.00519966   -0.00000001
     atom   42 type  2   force =    -0.00520020    0.00520020   -0.00000025
     atom   43 type  2   force =    -0.00520057    0.00520057    0.00000003
     atom   44 type  2   force =    -0.00519966    0.00519993   -0.00000001
     atom   45 type  2   force =    -0.00519993    0.00519966    0.00000001
     atom   46 type  2   force =    -0.00520020    0.00520020    0.00000025
     atom   47 type  2   force =    -0.00520057    0.00520057   -0.00000003
     atom   48 type  2   force =    -0.00519966    0.00519993    0.00000001

     Total force =     0.041602     Total SCF correction =     0.000084

     entering subroutine stress ...

          total   stress  (Ry/bohr**3)                   (kbar)     P=   30.93
   0.00016349  -0.00000001   0.00000000         24.05     -0.00      0.00
  -0.00000001   0.00016349   0.00000000         -0.00     24.05      0.00
   0.00000000   0.00000000   0.00030378          0.00      0.00     44.69

     General routines

     Parallel routines

   This run was terminated on:  11:48: 8  12May2018

   JOB DONE.