     Program PWSCF v.5.4.0 starts on 12May2018 at 18:54: 8

     Current dimensions of program PWSCF are:
     Max number of different atomic species (ntypx) = 10
     Max number of k-points (npk) =  40000
     Max angular momentum in pseudopotentials (lmaxx) =  3
               file Sn.pbesol-dn-rrkjus.UPF: wavefunction(s)  5S 4D renormalized
               file O.pbesol-nl-rrkjus.UPF: wavefunction(s)  2S renormalized

     Subspace diagonalization in iterative solution of the eigenvalue problem:
     a serial algorithm will be used

     Found symmetry operation: I + ( -0.5000  0.0000  0.0000)
     This is a supercell, fractional translations are disabled

     bravais-lattice index     =            0
     lattice parameter (alat)  =      18.1000  a.u.
     unit-cell volume          =    3990.7157 (a.u.)^3
     number of atoms/cell      =           48
     number of atomic types    =            2
     number of electrons       =       416.00
     number of Kohn-Sham states=          256
     kinetic-energy cutoff     =      60.0000  Ry
     charge density cutoff     =     600.0000  Ry
     convergence threshold     =      2.0E-09
     mixing beta               =       0.7000
     number of iterations used =            8  plain     mixing
     Exchange-correlation      = PBESOL ( 1  4 10  8 0 0)

     celldm(1)=  18.100000  celldm(2)=   0.000000  celldm(3)=   0.000000
     celldm(4)=   0.000000  celldm(5)=   0.000000  celldm(6)=   0.000000

     crystal axes: (cart. coord. in units of alat)
               a(1) = (   1.000000   0.000000   0.000000 )
               a(2) = (   0.000000   1.000000   0.000000 )
               a(3) = (   0.000000   0.000000   0.673000 )

     reciprocal axes: (cart. coord. in units 2 pi/alat)
               b(1) = (  1.000000  0.000000  0.000000 )
               b(2) = (  0.000000  1.000000  0.000000 )
               b(3) = (  0.000000  0.000000  1.485884 )

     PseudoPot. # 1 for Sn read from file:
     /home/raja/pseudo/Sn.pbesol-dn-rrkjus.UPF
     MD5 check sum: b150398e14deaf400293d9009fcc5675
     Pseudo is Ultrasoft + core correction, Zval = 14.0
     Generated using "atomic" code by A. Dal Corso  v.5.4.0
     Using radial grid of 1243 points,  6 beta functions with:
                l(1) =   0
                l(2) =   0
                l(3) =   1
                l(4) =   1
                l(5) =   2
                l(6) =   2
     Q(r) pseudized with 0 coefficients

     PseudoPot. # 2 for  O read from file:
     /home/raja/pseudo/O.pbesol-nl-rrkjus.UPF
     MD5 check sum: c80495934389d02e713646931b6a7a51
     Pseudo is Ultrasoft + core correction, Zval =  6.0
     Generated using "atomic" code by A. Dal Corso  v.5.4.0
     Using radial grid of 1095 points,  4 beta functions with:
                l(1) =   0
                l(2) =   0
                l(3) =   1
                l(4) =   1
     Q(r) pseudized with 0 coefficients

     atomic species   valence    mass     pseudopotential
        Sn            14.00   118.71000     Sn( 1.00)
        O              6.00    15.99900      O( 1.00)

      8 Sym. Ops., with inversion, found

   Cartesian axes

     site n.     atom                  positions (alat units)
         1           Sn  tau(   1) = (   0.0000000   0.0000000   0.0000000  )
         2           Sn  tau(   2) = (   0.5000000   0.0000000   0.0000000  )
         3           Sn  tau(   3) = (   0.0000000   0.5000000   0.0000000  )
         4           Sn  tau(   4) = (   0.5000000   0.5000000   0.0000000  )
         5           Sn  tau(   5) = (   0.0000000   0.0000000   0.3365000  )
         6           Sn  tau(   6) = (   0.5000000   0.0000000   0.3365000  )
         7           Sn  tau(   7) = (   0.0000000   0.5000000   0.3365000  )
         8           Sn  tau(   8) = (   0.5000000   0.5000000   0.3365000  )
         9           Sn  tau(   9) = (   0.2500000   0.2500000   0.1682500  )
        10           Sn  tau(  10) = (   0.7500000   0.2500000   0.1682500  )
        11           Sn  tau(  11) = (   0.2500000   0.7500000   0.1682500  )
        12           Sn  tau(  12) = (   0.7500000   0.7500000   0.1682500  )
        13           Sn  tau(  13) = (   0.2500000   0.2500000   0.5047500  )
        14           Sn  tau(  14) = (   0.7500000   0.2500000   0.5047500  )
        15           Sn  tau(  15) = (   0.2500000   0.7500000   0.5047500  )
        16           Sn  tau(  16) = (   0.7500000   0.7500000   0.5047500  )
        17           O   tau(  17) = (   0.1535000   0.1535000   0.0000000  )
        18           O   tau(  18) = (   0.6535000   0.1535000   0.0000000  )
        19           O   tau(  19) = (   0.1535000   0.6535000   0.0000000  )
        20           O   tau(  20) = (   0.6535000   0.6535000   0.0000000  )
        21           O   tau(  21) = (   0.1535000   0.1535000   0.3365000  )
        22           O   tau(  22) = (   0.6535000   0.1535000   0.3365000  )
        23           O   tau(  23) = (   0.1535000   0.6535000   0.3365000  )
        24           O   tau(  24) = (   0.6535000   0.6535000   0.3365000  )
        25           O   tau(  25) = (   0.3465000   0.3465000   0.0000000  )
        26           O   tau(  26) = (   0.8465000   0.3465000   0.0000000  )
        27           O   tau(  27) = (   0.3465000   0.8465000   0.0000000  )
        28           O   tau(  28) = (   0.8465000   0.8465000   0.0000000  )
        29           O   tau(  29) = (   0.3465000   0.3465000   0.3365000  )
        30           O   tau(  30) = (   0.8465000   0.3465000   0.3365000  )
        31           O   tau(  31) = (   0.3465000   0.8465000   0.3365000  )
        32           O   tau(  32) = (   0.8465000   0.8465000   0.3365000  )
        33           O   tau(  33) = (   0.0965000   0.4035000   0.1682500  )
        34           O   tau(  34) = (   0.5965000   0.4035000   0.1682500  )
        35           O   tau(  35) = (   0.0965000   0.9035000   0.1682500  )
        36           O   tau(  36) = (   0.5965000   0.9035000   0.1682500  )
        37           O   tau(  37) = (   0.0965000   0.4035000   0.5047500  )
        38           O   tau(  38) = (   0.5965000   0.4035000   0.5047500  )
        39           O   tau(  39) = (   0.0965000   0.9035000   0.5047500  )
        40           O   tau(  40) = (   0.5965000   0.9035000   0.5047500  )
        41           O   tau(  41) = (   0.4035000   0.0965000   0.1682500  )
        42           O   tau(  42) = (   0.9035000   0.0965000   0.1682500  )
        43           O   tau(  43) = (   0.4035000   0.5965000   0.1682500  )
        44           O   tau(  44) = (   0.9035000   0.5965000   0.1682500  )
        45           O   tau(  45) = (   0.4035000   0.0965000   0.5047500  )
        46           O   tau(  46) = (   0.9035000   0.0965000   0.5047500  )
        47           O   tau(  47) = (   0.4035000   0.5965000   0.5047500  )
        48           O   tau(  48) = (   0.9035000   0.5965000   0.5047500  )

     number of k points=    18
                       cart. coord. in units 2pi/alat
        k(    1) = (   0.1250000   0.1250000   0.1238237), wk =   0.0833333
        k(    2) = (   0.1250000   0.1250000   0.3714710), wk =   0.0833333
        k(    3) = (   0.1250000   0.1250000   0.6191184), wk =   0.0833333
        k(    4) = (   0.1250000   0.3750000   0.1238237), wk =   0.1666667
        k(    5) = (   0.1250000   0.3750000   0.3714710), wk =   0.1666667
        k(    6) = (   0.1250000   0.3750000   0.6191184), wk =   0.1666667
        k(    7) = (   0.3750000   0.3750000   0.1238237), wk =   0.0833333
        k(    8) = (   0.3750000   0.3750000   0.3714710), wk =   0.0833333
        k(    9) = (   0.3750000   0.3750000   0.6191184), wk =   0.0833333
        k(   10) = (  -0.1250000   0.1250000  -0.1238237), wk =   0.0833333
        k(   11) = (  -0.1250000   0.1250000  -0.3714710), wk =   0.0833333
        k(   12) = (  -0.1250000   0.1250000  -0.6191184), wk =   0.0833333
        k(   13) = (  -0.1250000   0.3750000  -0.1238237), wk =   0.1666667
        k(   14) = (  -0.1250000   0.3750000  -0.3714710), wk =   0.1666667
        k(   15) = (  -0.1250000   0.3750000  -0.6191184), wk =   0.1666667
        k(   16) = (  -0.3750000   0.3750000  -0.1238237), wk =   0.0833333
        k(   17) = (  -0.3750000   0.3750000  -0.3714710), wk =   0.0833333
        k(   18) = (  -0.3750000   0.3750000  -0.6191184), wk =   0.0833333

     Largest allocated arrays     est. size (Mb)     dimensions
     Largest temporary arrays     est. size (Mb)     dimensions

     Initial potential from superposition of free atoms

     starting charge  415.97986, renormalised to  416.00000
     Starting wfc are  272 randomized atomic wfcs

     Self-consistent Calculation

     iteration #  1     ecut=    60.00 Ry     beta=0.70
     Davidson diagonalization with overlap
     ethr =  1.00E-02,  avg # of iterations =  3.0

     total energy              =   -3632.55804562 Ry
     Harris-Foulkes estimate   =   -3641.55634080 Ry
     estimated scf accuracy    <      11.99015622 Ry

[...]

     iteration #  5     ecut=    60.00 Ry     beta=0.70
     Davidson diagonalization with overlap
     c_bands:  1 eigenvalues not converged
     ethr =  2.33E-07,  avg # of iterations =  6.1

[...]

     total energy              =   -3638.20964824 Ry
     Harris-Foulkes estimate   =   -3638.20964824 Ry
     estimated scf accuracy    <          2.1E-09 Ry

     iteration # 11     ecut=    60.00 Ry     beta=0.70
     Davidson diagonalization with overlap
     ethr =  4.96E-13,  avg # of iterations =  2.0

     End of self-consistent calculation

          k = 0.1250 0.1250 0.1238 ( 31307 PWs)   bands (ev):

   -12.0179 -11.9570 -11.9570 -11.9391 -11.9391 -11.8328 -11.8225 -11.7997
   -11.7902 -11.7886 -11.7777 -11.7777 -11.7643 -11.6397 -11.6397 -11.3878
   -11.3666 -11.3422 -11.3188 -11.2619 -11.1340 -11.1340 -11.1160 -11.1159
   -11.1137 -11.1137 -11.1035 -11.1001 -11.0973 -11.0950 -11.0946 -11.0946
   -11.0920 -11.0762 -11.0723 -11.0650 -11.0650 -11.0559 -11.0559 -11.0081
   -10.9655 -10.9620 -10.9620 -10.9595 -10.9590 -10.9589 -10.9589 -10.9572
   -10.9567 -10.9327 -10.9327 -10.9233 -10.9204 -10.9180 -10.9180 -10.9155
   -10.9063 -10.9060 -10.9060 -10.9057 -10.9056 -10.9039 -10.9039 -10.8907
   -10.8744 -10.8664 -10.8664 -10.8652 -10.8652 -10.8634 -10.8627 -10.8611
   -10.8602 -10.8594 -10.8592 -10.8584 -10.8577 -10.8576 -10.8543 -10.8543
    -9.6992  -9.1245  -9.1245  -8.7833  -8.7833  -8.3983  -8.3741  -8.3741
    -8.3586  -8.2693  -8.2693  -8.0186  -8.0044  -7.9906  -7.9296  -7.9008
    -7.8975  -7.8640  -7.6228  -7.1263  -7.1262  -6.8006  -6.8006  -6.6321
    -6.5881  -6.5598  -6.5223  -6.3942  -6.3942  -6.3633  -6.3633  -6.3184
     0.9524   1.1026   1.1566   1.5395   1.9126   1.9126   2.0947   2.0947
     2.1042   2.1541   2.1541   2.8685   2.8685   3.1846   3.4239   3.5425
     3.5425   3.7218   3.7218   4.1117   4.1123   4.7054   4.8006   4.8123
     4.8123   4.8633   4.8824   4.9148   4.9148   5.0143   5.1265   5.1596
     5.3255   5.3825   5.4564   5.4564   5.7204   5.8143   5.8143   5.9757
     6.0299   6.0510   6.0510   6.0749   6.3533   6.4205   6.5131   6.5203
     6.5203   6.7082   6.7583   6.8805   6.8805   6.9483   7.0240   7.0913
     7.1655   7.2096   7.2096   7.2568   7.2883   7.2883   7.3648   7.3648
     7.6424   7.6603   7.6841   7.7111   7.7439   7.7440   7.7449   7.7734
     7.7734   7.7991   7.8246   7.9031   7.9031   7.9948   7.9948   8.0411
     8.0491   8.1121   8.1440   8.1541   8.1541   8.1732   8.1890   8.2064
     8.2559   8.2559   8.2856   8.3499   8.3499   8.4345   8.4345   8.9617
    10.1724  12.6452  12.6452  13.3066  13.4508  13.4508  13.4584  13.5604
    13.5909  14.4916  14.6854  14.7916  14.7916  14.9814  14.9814  15.0218
    15.1570  15.1573  15.7771  15.7771  15.8465  15.8465  16.1832  16.1914
    16.6972  16.6972  16.9698  16.9698  17.4980  17.6759  17.8993  18.5602
    18.8535  19.1654  19.2987  19.3808  19.3808  19.4640  19.4826  19.4979
    19.4979  19.5370  19.5370  19.5548  19.5815  19.5816  19.6037  19.6215

[...]

          k = 0.3750 0.3750 0.6191 ( 31333 PWs)   bands (ev):

[...]

          k =-0.1250 0.1250-0.1238 ( 31307 PWs)   bands (ev):

[...]

          k =-0.3750 0.3750-0.6191 ( 31333 PWs)   bands (ev):

   -11.8067 -11.7976 -11.7976 -11.7933 -11.7753 -11.7659 -11.7659 -11.7289
   -11.6417 -11.6417 -11.5785 -11.5747 -11.5652 -11.5510 -11.5510 -11.5195
   -11.5074 -11.4837 -11.4361 -11.4361 -11.3950 -11.3920 -11.3700 -11.3699
   -11.2583 -11.2116 -11.2116 -11.2082 -11.1764 -11.1384 -11.1384 -11.1023
   -11.0314 -11.0272 -11.0272 -11.0256 -11.0049 -11.0006 -11.0006 -10.9994
   -10.9844 -10.9832 -10.9831 -10.9789 -10.9663 -10.9663 -10.9659 -10.9629
   -10.9426 -10.9378 -10.9348 -10.9348 -10.9335 -10.9335 -10.9327 -10.9289
   -10.9200 -10.9176 -10.9176 -10.9155 -10.9147 -10.9140 -10.9118 -10.9118
   -10.9102 -10.9079 -10.9079 -10.9034 -10.9032 -10.8999 -10.8999 -10.8976
   -10.8971 -10.8966 -10.8966 -10.8959 -10.8955 -10.8931 -10.8930 -10.8928
    -9.2554  -9.0381  -9.0381  -9.0311  -8.8422  -8.8422  -8.8025  -8.6280
    -7.9686  -7.9686  -7.8854  -7.8692  -7.8692  -7.8534  -7.6815  -7.6071
    -7.4474  -7.4085  -7.2697  -7.2697  -7.0888  -7.0535  -6.9729  -6.9729
    -6.7611  -6.6213  -6.5993  -6.5993  -6.5216  -6.5215  -6.5189  -6.5136
     1.3486   1.3588   1.6168   1.6168   1.7113   1.7253   1.7253   1.9881
     2.3689   2.7637   2.7637   2.8765   3.1983   3.1983   3.2119   3.6538
     4.0476   4.0606   4.0606   4.3834   4.5664   4.5664   4.6614   4.6856
     4.9123   4.9123   4.9680   4.9681   5.0919   5.0982   5.2810   5.2810
     5.2944   5.3651   5.4134   5.4458   5.5180   5.6204   5.6311   5.6311
     5.7549   5.8075   5.8283   5.8367   5.8367   5.9478   6.0241   6.0241
     6.0285   6.2664   6.2985   6.4111   6.4532   6.4532   6.5598   6.5598
     6.9966   7.0644   7.2736   7.2736   7.3373   7.3374   7.3905   7.4621
     7.4914   7.5468   7.5757   7.6331   7.6331   7.6769   7.6769   7.7741
     7.8271   7.8271   7.8569   7.8796   7.9926   7.9926   8.0335   8.0898
     8.1439   8.1439   8.1459   8.1694   8.2013   8.2114   8.2114   8.2319
     8.4145   8.4145   8.4172   8.4219   8.5081   8.5458   8.5458   8.6241
    12.4900  12.9362  12.9362  13.2021  13.2575  13.5148  13.5148  13.5786
    14.2819  14.4031  14.5934  14.5934  14.8149  14.8149  14.9655  15.1888
    16.7657  16.8515  16.9772  16.9772  16.9903  16.9903  17.0923  17.1107
    17.2510  17.2957  17.2957  17.3972  17.7072  17.7127  17.7127  17.7327
    17.7596  17.7829  17.8659  17.8659  17.8707  17.8707  17.9923  18.0273
    19.2817  19.2817  19.4570  19.4682  19.4682  19.6328  19.7163  19.8822

     highest occupied, lowest unoccupied level (ev):     8.9617   10.1724

!    total energy              =   -3638.20964824 Ry
     Harris-Foulkes estimate   =   -3638.20964824 Ry
     estimated scf accuracy    <          4.6E-10 Ry

     The total energy is the sum of the following terms:

     one-electron contribution =   -1047.62267073 Ry
     hartree contribution      =     843.92620175 Ry
     xc contribution           =   -1001.54774178 Ry
     ewald contribution        =   -2432.96543749 Ry

     convergence has been achieved in  11 iterations

     Forces acting on atoms (Ry/au):

     atom    1 type  1   force =     0.00000000    0.00000000    0.00000000
     atom    2 type  1   force =     0.00000000    0.00000000    0.00000000
     atom    3 type  1   force =     0.00000000    0.00000000    0.00000000
     atom    4 type  1   force =     0.00000000    0.00000000    0.00000000
     atom    5 type  1   force =     0.00000000    0.00000000    0.00000000
     atom    6 type  1   force =     0.00000000    0.00000000    0.00000000
     atom    7 type  1   force =     0.00000000    0.00000000    0.00000000
     atom    8 type  1   force =     0.00000000    0.00000000    0.00000000
     atom    9 type  1   force =     0.00000165    0.00000165   -0.00000172
     atom   10 type  1   force =    -0.00000489    0.00000489   -0.00000747
     atom   11 type  1   force =     0.00000489   -0.00000489   -0.00000747
     atom   12 type  1   force =    -0.00000165   -0.00000165   -0.00000172
     atom   13 type  1   force =     0.00000165    0.00000165    0.00000172
     atom   14 type  1   force =    -0.00000489    0.00000489    0.00000747
     atom   15 type  1   force =     0.00000489   -0.00000489    0.00000747
     atom   16 type  1   force =    -0.00000165   -0.00000165    0.00000172
     atom   17 type  2   force =    -0.00250303   -0.00250303    0.00000000
     atom   18 type  2   force =    -0.00250313   -0.00250279    0.00000000
     atom   19 type  2   force =    -0.00250279   -0.00250313    0.00000000
     atom   20 type  2   force =    -0.00250316   -0.00250316    0.00000000
     atom   21 type  2   force =    -0.00250273   -0.00250273    0.00000000
     atom   22 type  2   force =    -0.00250299   -0.00250307    0.00000000
     atom   23 type  2   force =    -0.00250307   -0.00250299    0.00000000
     atom   24 type  2   force =    -0.00250333   -0.00250333    0.00000000
     atom   25 type  2   force =     0.00250316    0.00250316    0.00000000
     atom   26 type  2   force =     0.00250279    0.00250313    0.00000000
     atom   27 type  2   force =     0.00250313    0.00250279    0.00000000
     atom   28 type  2   force =     0.00250303    0.00250303    0.00000000
     atom   29 type  2   force =     0.00250333    0.00250333    0.00000000
     atom   30 type  2   force =     0.00250307    0.00250299    0.00000000
     atom   31 type  2   force =     0.00250299    0.00250307    0.00000000
     atom   32 type  2   force =     0.00250273    0.00250273    0.00000000
     atom   33 type  2   force =     0.00250300   -0.00250285   -0.00000015
     atom   34 type  2   force =     0.00250294   -0.00250294   -0.00000028
     atom   35 type  2   force =     0.00250282   -0.00250282   -0.00000010
     atom   36 type  2   force =     0.00250285   -0.00250300   -0.00000015
     atom   37 type  2   force =     0.00250300   -0.00250285    0.00000015
     atom   38 type  2   force =     0.00250294   -0.00250294    0.00000028
     atom   39 type  2   force =     0.00250282   -0.00250282    0.00000010
     atom   40 type  2   force =     0.00250285   -0.00250300    0.00000015
     atom   41 type  2   force =    -0.00250285    0.00250300   -0.00000015
     atom   42 type  2   force =    -0.00250282    0.00250282   -0.00000010
     atom   43 type  2   force =    -0.00250294    0.00250294   -0.00000028
     atom   44 type  2   force =    -0.00250300    0.00250285   -0.00000015
     atom   45 type  2   force =    -0.00250285    0.00250300    0.00000015
     atom   46 type  2   force =    -0.00250282    0.00250282    0.00000010
     atom   47 type  2   force =    -0.00250294    0.00250294    0.00000028
     atom   48 type  2   force =    -0.00250300    0.00250285    0.00000015

     Total force =     0.020024     Total SCF correction =     0.000047

     entering subroutine stress ...

          total   stress  (Ry/bohr**3)                   (kbar)     P=  -20.90
  -0.00015155   0.00000001   0.00000000        -22.29      0.00      0.00
   0.00000001  -0.00015155   0.00000000          0.00    -22.29      0.00
   0.00000000   0.00000000  -0.00012306          0.00      0.00    -18.10

     General routines

     Parallel routines

   This run was terminated on:  22:39:49  12May2018

   JOB DONE.