     Program PWSCF v.5.4.0 starts on 12May2018 at 22:39:49

     Current dimensions of program PWSCF are:
     Max number of different atomic species (ntypx) = 10
     Max number of k-points (npk) =  40000
     Max angular momentum in pseudopotentials (lmaxx) =  3
               file Sn.pbesol-dn-rrkjus.UPF: wavefunction(s)  5S 4D renormalized
               file O.pbesol-nl-rrkjus.UPF: wavefunction(s)  2S renormalized

     Subspace diagonalization in iterative solution of the eigenvalue problem:
     a serial algorithm will be used

     Found symmetry operation: I + ( -0.5000  0.0000  0.0000)
     This is a supercell, fractional translations are disabled

     bravais-lattice index     =            0
     lattice parameter (alat)  =      18.1500  a.u.
     unit-cell volume          =    4023.8794 (a.u.)^3
     number of atoms/cell      =           48
     number of atomic types    =            2
     number of electrons       =       416.00
     number of Kohn-Sham states=          256
     kinetic-energy cutoff     =      60.0000  Ry
     charge density cutoff     =     600.0000  Ry
     convergence threshold     =      2.0E-09
     mixing beta               =       0.7000
     number of iterations used =            8  plain     mixing
     Exchange-correlation      = PBESOL ( 1  4 10  8 0 0)

     celldm(1)=  18.150000  celldm(2)=   0.000000  celldm(3)=   0.000000
     celldm(4)=   0.000000  celldm(5)=   0.000000  celldm(6)=   0.000000

     crystal axes: (cart. coord. in units of alat)
               a(1) = (   1.000000   0.000000   0.000000 )
               a(2) = (   0.000000   1.000000   0.000000 )
               a(3) = (   0.000000   0.000000   0.673000 )

     reciprocal axes: (cart. coord. in units 2 pi/alat)
               b(1) = (  1.000000  0.000000  0.000000 )
               b(2) = (  0.000000  1.000000  0.000000 )
               b(3) = (  0.000000  0.000000  1.485884 )

     PseudoPot. # 1 for Sn read from file:
     /home/raja/pseudo/Sn.pbesol-dn-rrkjus.UPF
     MD5 check sum: b150398e14deaf400293d9009fcc5675
     Pseudo is Ultrasoft + core correction, Zval = 14.0
     Generated using "atomic" code by A. Dal Corso  v.5.4.0
     Using radial grid of 1243 points,  6 beta functions with:
                l(1) =   0
                l(2) =   0
                l(3) =   1
                l(4) =   1
                l(5) =   2
                l(6) =   2
     Q(r) pseudized with 0 coefficients

     PseudoPot. # 2 for  O read from file:
     /home/raja/pseudo/O.pbesol-nl-rrkjus.UPF
     MD5 check sum: c80495934389d02e713646931b6a7a51
     Pseudo is Ultrasoft + core correction, Zval =  6.0
     Generated using "atomic" code by A. Dal Corso  v.5.4.0
     Using radial grid of 1095 points,  4 beta functions with:
                l(1) =   0
                l(2) =   0
                l(3) =   1
                l(4) =   1
     Q(r) pseudized with 0 coefficients

     atomic species   valence    mass     pseudopotential
        Sn            14.00   118.71000     Sn( 1.00)
        O              6.00    15.99900      O( 1.00)

      8 Sym. Ops., with inversion, found

   Cartesian axes

     site n.     atom                  positions (alat units)
         1           Sn  tau(   1) = (   0.0000000   0.0000000   0.0000000  )
         2           Sn  tau(   2) = (   0.5000000   0.0000000   0.0000000  )
         3           Sn  tau(   3) = (   0.0000000   0.5000000   0.0000000  )
         4           Sn  tau(   4) = (   0.5000000   0.5000000   0.0000000  )
         5           Sn  tau(   5) = (   0.0000000   0.0000000   0.3365000  )
         6           Sn  tau(   6) = (   0.5000000   0.0000000   0.3365000  )
         7           Sn  tau(   7) = (   0.0000000   0.5000000   0.3365000  )
         8           Sn  tau(   8) = (   0.5000000   0.5000000   0.3365000  )
         9           Sn  tau(   9) = (   0.2500000   0.2500000   0.1682500  )
        10           Sn  tau(  10) = (   0.7500000   0.2500000   0.1682500  )
        11           Sn  tau(  11) = (   0.2500000   0.7500000   0.1682500  )
        12           Sn  tau(  12) = (   0.7500000   0.7500000   0.1682500  )
        13           Sn  tau(  13) = (   0.2500000   0.2500000   0.5047500  )
        14           Sn  tau(  14) = (   0.7500000   0.2500000   0.5047500  )
        15           Sn  tau(  15) = (   0.2500000   0.7500000   0.5047500  )
        16           Sn  tau(  16) = (   0.7500000   0.7500000   0.5047500  )
        17           O   tau(  17) = (   0.1535000   0.1535000   0.0000000  )
        18           O   tau(  18) = (   0.6535000   0.1535000   0.0000000  )
        19           O   tau(  19) = (   0.1535000   0.6535000   0.0000000  )
        20           O   tau(  20) = (   0.6535000   0.6535000   0.0000000  )
        21           O   tau(  21) = (   0.1535000   0.1535000   0.3365000  )
        22           O   tau(  22) = (   0.6535000   0.1535000   0.3365000  )
        23           O   tau(  23) = (   0.1535000   0.6535000   0.3365000  )
        24           O   tau(  24) = (   0.6535000   0.6535000   0.3365000  )
        25           O   tau(  25) = (   0.3465000   0.3465000   0.0000000  )
        26           O   tau(  26) = (   0.8465000   0.3465000   0.0000000  )
        27           O   tau(  27) = (   0.3465000   0.8465000   0.0000000  )
        28           O   tau(  28) = (   0.8465000   0.8465000   0.0000000  )
        29           O   tau(  29) = (   0.3465000   0.3465000   0.3365000  )
        30           O   tau(  30) = (   0.8465000   0.3465000   0.3365000  )
        31           O   tau(  31) = (   0.3465000   0.8465000   0.3365000  )
        32           O   tau(  32) = (   0.8465000   0.8465000   0.3365000  )
        33           O   tau(  33) = (   0.0965000   0.4035000   0.1682500  )
        34           O   tau(  34) = (   0.5965000   0.4035000   0.1682500  )
        35           O   tau(  35) = (   0.0965000   0.9035000   0.1682500  )
        36           O   tau(  36) = (   0.5965000   0.9035000   0.1682500  )
        37           O   tau(  37) = (   0.0965000   0.4035000   0.5047500  )
        38           O   tau(  38) = (   0.5965000   0.4035000   0.5047500  )
        39           O   tau(  39) = (   0.0965000   0.9035000   0.5047500  )
        40           O   tau(  40) = (   0.5965000   0.9035000   0.5047500  )
        41           O   tau(  41) = (   0.4035000   0.0965000   0.1682500  )
        42           O   tau(  42) = (   0.9035000   0.0965000   0.1682500  )
        43           O   tau(  43) = (   0.4035000   0.5965000   0.1682500  )
        44           O   tau(  44) = (   0.9035000   0.5965000   0.1682500  )
        45           O   tau(  45) = (   0.4035000   0.0965000   0.5047500  )
        46           O   tau(  46) = (   0.9035000   0.0965000   0.5047500  )
        47           O   tau(  47) = (   0.4035000   0.5965000   0.5047500  )
        48           O   tau(  48) = (   0.9035000   0.5965000   0.5047500  )

     number of k points=    18
                       cart. coord. in units 2pi/alat
        k(    1) = (   0.1250000   0.1250000   0.1238237), wk =   0.0833333
        k(    2) = (   0.1250000   0.1250000   0.3714710), wk =   0.0833333
        k(    3) = (   0.1250000   0.1250000   0.6191184), wk =   0.0833333
        k(    4) = (   0.1250000   0.3750000   0.1238237), wk =   0.1666667
        k(    5) = (   0.1250000   0.3750000   0.3714710), wk =   0.1666667
        k(    6) = (   0.1250000   0.3750000   0.6191184), wk =   0.1666667
        k(    7) = (   0.3750000   0.3750000   0.1238237), wk =   0.0833333
        k(    8) = (   0.3750000   0.3750000   0.3714710), wk =   0.0833333
        k(    9) = (   0.3750000   0.3750000   0.6191184), wk =   0.0833333
        k(   10) = (  -0.1250000   0.1250000  -0.1238237), wk =   0.0833333
        k(   11) = (  -0.1250000   0.1250000  -0.3714710), wk =   0.0833333
        k(   12) = (  -0.1250000   0.1250000  -0.6191184), wk =   0.0833333
        k(   13) = (  -0.1250000   0.3750000  -0.1238237), wk =   0.1666667
        k(   14) = (  -0.1250000   0.3750000  -0.3714710), wk =   0.1666667
        k(   15) = (  -0.1250000   0.3750000  -0.6191184), wk =   0.1666667
        k(   16) = (  -0.3750000   0.3750000  -0.1238237), wk =   0.0833333
        k(   17) = (  -0.3750000   0.3750000  -0.3714710), wk =   0.0833333
        k(   18) = (  -0.3750000   0.3750000  -0.6191184), wk =   0.0833333

     Largest allocated arrays     est. size (Mb)     dimensions
     Largest temporary arrays     est. size (Mb)     dimensions

     Initial potential from superposition of free atoms

     starting charge  415.97986, renormalised to  416.00000
     Starting wfc are  272 randomized atomic wfcs

     Self-consistent Calculation

     iteration #  1     ecut=    60.00 Ry     beta=0.70
     Davidson diagonalization with overlap
     ethr =  1.00E-02,  avg # of iterations =  3.0

     total energy              =   -3632.53933968 Ry
     Harris-Foulkes estimate   =   -3641.54311870 Ry
     estimated scf accuracy    <      11.99145979 Ry

[...]

     iteration #  5     ecut=    60.00 Ry     beta=0.70
     Davidson diagonalization with overlap
     c_bands:  1 eigenvalues not converged
     c_bands:  1 eigenvalues not converged
     c_bands:  1 eigenvalues not converged
     ethr =  2.33E-07,  avg # of iterations =  8.6

[...]

     total energy              =   -3638.20709330 Ry
     Harris-Foulkes estimate   =   -3638.20709331 Ry
     estimated scf accuracy    <       0.00000004 Ry

     iteration # 10     ecut=    60.00 Ry     beta=0.70
     Davidson diagonalization with overlap
     ethr =  7.83E-12,  avg # of iterations =  2.8

     End of self-consistent calculation

          k = 0.1250 0.1250 0.1238 ( 31549 PWs)   bands (ev):

   -12.1267 -12.0675 -12.0674 -12.0500 -12.0500 -11.9463 -11.9366 -11.9143
   -11.9036 -11.9021 -11.8919 -11.8919 -11.8767 -11.7575 -11.7575 -11.5139
   -11.4931 -11.4682 -11.4471 -11.3923 -11.2703 -11.2702 -11.2521 -11.2521
   -11.2502 -11.2502 -11.2413 -11.2372 -11.2344 -11.2328 -11.2328 -11.2322
   -11.2298 -11.2152 -11.2112 -11.2040 -11.2040 -11.1953 -11.1953 -11.1482
   -11.1079 -11.1036 -11.1035 -11.1010 -11.1008 -11.1006 -11.1006 -11.0990
   -11.0984 -11.0766 -11.0765 -11.0673 -11.0644 -11.0624 -11.0623 -11.0598
   -11.0510 -11.0508 -11.0507 -11.0505 -11.0503 -11.0486 -11.0486 -11.0360
   -11.0195 -11.0112 -11.0112 -11.0102 -11.0101 -11.0087 -11.0080 -11.0064
   -11.0053 -11.0043 -11.0042 -11.0032 -11.0031 -11.0031 -11.0000 -10.9999
    -9.7753  -9.2058  -9.2058  -8.8686  -8.8685  -8.4928  -8.4631  -8.4630
    -8.4522  -8.3613  -8.3612  -8.1274  -8.0982  -8.0931  -8.0340  -7.9982
    -7.9940  -7.9687  -7.7318  -7.2449  -7.2449  -6.9276  -6.9276  -6.7634
    -6.7207  -6.6926  -6.6562  -6.5316  -6.5316  -6.5014  -6.5013  -6.4583
     0.8559   1.0190   1.0722   1.4475   1.8146   1.8146   1.9932   1.9932
     2.0075   2.0555   2.0555   2.7681   2.7681   3.0652   3.3000   3.4566
     3.4566   3.6323   3.6323   4.0279   4.0289   4.6079   4.7084   4.7205
     4.7206   4.7673   4.7805   4.8214   4.8214   4.9205   5.0299   5.0651
     5.2263   5.2727   5.3543   5.3543   5.6077   5.7078   5.7078   5.8709
     5.9400   5.9454   5.9454   5.9693   6.2387   6.3046   6.3919   6.4098
     6.4098   6.5895   6.6439   6.7734   6.7734   6.8413   6.9150   6.9625
     7.0414   7.0943   7.0943   7.1570   7.1765   7.1765   7.2532   7.2533
     7.5357   7.5386   7.5593   7.5883   7.6198   7.6198   7.6217   7.6494
     7.6494   7.6887   7.7145   7.7927   7.7927   7.8860   7.8860   7.9273
     7.9354   7.9923   8.0300   8.0300   8.0307   8.0594   8.0769   8.0942
     8.1284   8.1284   8.1695   8.2330   8.2330   8.3176   8.3177   8.8408
     9.9673  12.4392  12.4392  13.0971  13.2440  13.2440  13.2490  13.3555
    13.3863  14.2749  14.4887  14.5749  14.5749  14.7632  14.7632  14.8037
    14.9879  14.9886  15.6082  15.6082  15.6758  15.6758  16.0034  16.0101
    16.5060  16.5060  16.7767  16.7767  17.3265  17.5081  17.7147  18.3733
    18.6739  18.9723  19.1093  19.1717  19.1717  19.2648  19.2808  19.3021
    19.3021  19.3280  19.3280  19.3717  19.3828  19.3828  19.4047  19.4187

[...]

          k = 0.3750 0.3750 0.6191 ( 31563 PWs)   bands (ev):

[...]

          k =-0.1250 0.1250-0.1238 ( 31549 PWs)   bands (ev):

[...]

          k =-0.3750 0.3750-0.6191 ( 31563 PWs)   bands (ev):

   -11.9208 -11.9121 -11.9121 -11.9080 -11.8903 -11.8811 -11.8810 -11.8448
   -11.7602 -11.7601 -11.6990 -11.6955 -11.6846 -11.6717 -11.6717 -11.6408
   -11.6285 -11.6065 -11.5600 -11.5599 -11.5211 -11.5183 -11.4966 -11.4966
   -11.3878 -11.3427 -11.3426 -11.3401 -11.3094 -11.2734 -11.2733 -11.2396
   -11.1718 -11.1677 -11.1677 -11.1662 -11.1464 -11.1423 -11.1422 -11.1408
   -11.1258 -11.1246 -11.1246 -11.1207 -11.1086 -11.1086 -11.1081 -11.1054
   -11.0858 -11.0810 -11.0784 -11.0783 -11.0765 -11.0765 -11.0756 -11.0728
   -11.0635 -11.0612 -11.0612 -11.0597 -11.0580 -11.0573 -11.0552 -11.0552
   -11.0545 -11.0523 -11.0522 -11.0479 -11.0478 -11.0446 -11.0445 -11.0422
   -11.0413 -11.0404 -11.0404 -11.0397 -11.0394 -11.0374 -11.0373 -11.0372
    -9.3343  -9.1212  -9.1212  -9.1112  -8.9263  -8.9263  -8.8908  -8.7175
    -8.0721  -8.0721  -7.9931  -7.9748  -7.9748  -7.9608  -7.7906  -7.7180
    -7.5578  -7.5199  -7.3853  -7.3852  -7.2087  -7.1742  -7.0958  -7.0958
    -6.8895  -6.7531  -6.7317  -6.7317  -6.6559  -6.6559  -6.6534  -6.6482
     1.2550   1.2633   1.5208   1.5208   1.6149   1.6267   1.6267   1.8863
     2.2723   2.6640   2.6641   2.7746   3.0969   3.0969   3.1089   3.5543
     3.9552   3.9677   3.9677   4.2867   4.4672   4.4672   4.5584   4.5873
     4.8093   4.8093   4.8688   4.8688   4.9917   5.0038   5.1843   5.1844
     5.1852   5.2674   5.3147   5.3477   5.4062   5.5110   5.5294   5.5294
     5.6518   5.7052   5.7232   5.7363   5.7364   5.8475   5.9148   5.9148
     5.9193   6.1512   6.1894   6.3000   6.3421   6.3422   6.4447   6.4447
     6.8909   6.9620   7.1655   7.1655   7.2313   7.2313   7.2750   7.3440
     7.3820   7.4244   7.4673   7.5181   7.5181   7.5603   7.5603   7.6531
     7.7036   7.7036   7.7372   7.7612   7.8692   7.8692   7.9126   7.9678
     8.0290   8.0290   8.0310   8.0556   8.0869   8.0962   8.0962   8.1159
     8.2987   8.2987   8.3007   8.3072   8.3897   8.4280   8.4280   8.5064
    12.2817  12.7263  12.7263  12.9915  13.0460  13.3026  13.3026  13.3672
    14.0686  14.1894  14.3794  14.3794  14.5984  14.5985  14.7518  14.9707
    16.5904  16.6686  16.7999  16.7999  16.8082  16.8082  16.9059  16.9326
    17.0622  17.1059  17.1059  17.2097  17.5253  17.5254  17.5308  17.5446
    17.5720  17.5969  17.6736  17.6736  17.6890  17.6890  17.8011  17.8433
    19.0789  19.0789  19.2631  19.2632  19.2646  19.4349  19.5099  19.5681

     highest occupied, lowest unoccupied level (ev):     8.8408    9.9673

!    total energy              =   -3638.20709331 Ry
     Harris-Foulkes estimate   =   -3638.20709331 Ry
     estimated scf accuracy    <          1.8E-09 Ry

     The total energy is the sum of the following terms:

     one-electron contribution =   -1057.62495400 Ry
     hartree contribution      =     846.90379772 Ry
     xc contribution           =   -1001.22288367 Ry
     ewald contribution        =   -2426.26305336 Ry

     convergence has been achieved in  10 iterations

     Forces acting on atoms (Ry/au):

     atom    1 type  1   force =     0.00000000    0.00000000    0.00000000
     atom    2 type  1   force =     0.00000000    0.00000000    0.00000000
     atom    3 type  1   force =     0.00000000    0.00000000    0.00000000
     atom    4 type  1   force =     0.00000000    0.00000000    0.00000000
     atom    5 type  1   force =     0.00000000    0.00000000    0.00000000
     atom    6 type  1   force =     0.00000000    0.00000000    0.00000000
     atom    7 type  1   force =     0.00000000    0.00000000    0.00000000
     atom    8 type  1   force =     0.00000000    0.00000000    0.00000000
     atom    9 type  1   force =     0.00000670    0.00000670   -0.00000949
     atom   10 type  1   force =    -0.00000274    0.00000274   -0.00000989
     atom   11 type  1   force =     0.00000274   -0.00000274   -0.00000989
     atom   12 type  1   force =    -0.00000670   -0.00000670   -0.00000949
     atom   13 type  1   force =     0.00000670    0.00000670    0.00000949
     atom   14 type  1   force =    -0.00000274    0.00000274    0.00000989
     atom   15 type  1   force =     0.00000274   -0.00000274    0.00000989
     atom   16 type  1   force =    -0.00000670   -0.00000670    0.00000949
     atom   17 type  2   force =    -0.00165022   -0.00165022   -0.00000000
     atom   18 type  2   force =    -0.00165053   -0.00165022    0.00000000
     atom   19 type  2   force =    -0.00165022   -0.00165053   -0.00000000
     atom   20 type  2   force =    -0.00165078   -0.00165078    0.00000000
     atom   21 type  2   force =    -0.00165054   -0.00165054    0.00000000
     atom   22 type  2   force =    -0.00165099   -0.00165066    0.00000000
     atom   23 type  2   force =    -0.00165066   -0.00165099    0.00000000
     atom   24 type  2   force =    -0.00165052   -0.00165052    0.00000000
     atom   25 type  2   force =     0.00165078    0.00165078    0.00000000
     atom   26 type  2   force =     0.00165022    0.00165053   -0.00000000
     atom   27 type  2   force =     0.00165053    0.00165022    0.00000000
     atom   28 type  2   force =     0.00165022    0.00165022    0.00000000
     atom   29 type  2   force =     0.00165052    0.00165052    0.00000000
     atom   30 type  2   force =     0.00165066    0.00165099    0.00000000
     atom   31 type  2   force =     0.00165099    0.00165066    0.00000000
     atom   32 type  2   force =     0.00165054    0.00165054    0.00000000
     atom   33 type  2   force =     0.00165017   -0.00164994   -0.00000029
     atom   34 type  2   force =     0.00165049   -0.00165049   -0.00000027
     atom   35 type  2   force =     0.00165094   -0.00165094   -0.00000030
     atom   36 type  2   force =     0.00164994   -0.00165017   -0.00000029
     atom   37 type  2   force =     0.00165017   -0.00164994    0.00000029
     atom   38 type  2   force =     0.00165049   -0.00165049    0.00000027
     atom   39 type  2   force =     0.00165094   -0.00165094    0.00000030
     atom   40 type  2   force =     0.00164994   -0.00165017    0.00000029
     atom   41 type  2   force =    -0.00164994    0.00165017   -0.00000029
     atom   42 type  2   force =    -0.00165094    0.00165094   -0.00000030
     atom   43 type  2   force =    -0.00165049    0.00165049   -0.00000027
     atom   44 type  2   force =    -0.00165017    0.00164994   -0.00000029
     atom   45 type  2   force =    -0.00164994    0.00165017    0.00000029
     atom   46 type  2   force =    -0.00165094    0.00165094    0.00000030
     atom   47 type  2   force =    -0.00165049    0.00165049    0.00000027
     atom   48 type  2   force =    -0.00165017    0.00164994    0.00000029

     Total force =     0.013204     Total SCF correction =     0.000117

     entering subroutine stress ...

          total   stress  (Ry/bohr**3)                   (kbar)     P=  -36.74
  -0.00024775  -0.00000002   0.00000000        -36.45     -0.00      0.00
  -0.00000002  -0.00024775   0.00000000         -0.00    -36.45      0.00
   0.00000000   0.00000000  -0.00025368          0.00      0.00    -37.32

     General routines

     Parallel routines

   This run was terminated on:   2: 9:54  13May2018

   JOB DONE.