     Program PWSCF v.5.4.0 starts on 11May2018 at  6:33:10

     Current dimensions of program PWSCF are:
     Max number of different atomic species (ntypx) = 10
     Max number of k-points (npk) =  40000
     Max angular momentum in pseudopotentials (lmaxx) =  3
               file Sn.pbesol-dn-rrkjus.UPF: wavefunction(s)  5S 4D renormalized
               file O.pbesol-nl-rrkjus.UPF: wavefunction(s)  2S renormalized

     Subspace diagonalization in iterative solution of the eigenvalue problem:
     a serial algorithm will be used

     Found symmetry operation: I + ( -0.5000  0.0000  0.0000)
     This is a supercell, fractional translations are disabled

     bravais-lattice index     =            0
     lattice parameter (alat)  =      18.2000  a.u.
     unit-cell volume          =    4057.2263 (a.u.)^3
     number of atoms/cell      =           48
     number of atomic types    =            2
     number of electrons       =       416.00
     number of Kohn-Sham states=          256
     kinetic-energy cutoff     =      60.0000  Ry
     charge density cutoff     =     600.0000  Ry
     convergence threshold     =      2.0E-09
     mixing beta               =       0.7000
     number of iterations used =            8  plain     mixing
     Exchange-correlation      = PBESOL ( 1  4 10  8 0 0)

     celldm(1)=  18.200000  celldm(2)=   0.000000  celldm(3)=   0.000000
     celldm(4)=   0.000000  celldm(5)=   0.000000  celldm(6)=   0.000000

     crystal axes: (cart. coord. in units of alat)
               a(1) = (   1.000000   0.000000   0.000000 )
               a(2) = (   0.000000   1.000000   0.000000 )
               a(3) = (   0.000000   0.000000   0.673000 )

     reciprocal axes: (cart. coord. in units 2 pi/alat)
               b(1) = (  1.000000  0.000000  0.000000 )
               b(2) = (  0.000000  1.000000  0.000000 )
               b(3) = (  0.000000  0.000000  1.485884 )

     PseudoPot. # 1 for Sn read from file:
     /home/raja/pseudo/Sn.pbesol-dn-rrkjus.UPF
     MD5 check sum: b150398e14deaf400293d9009fcc5675
     Pseudo is Ultrasoft + core correction, Zval = 14.0
     Generated using "atomic" code by A. Dal Corso  v.5.4.0
     Using radial grid of 1243 points,  6 beta functions with:
                l(1) =   0
                l(2) =   0
                l(3) =   1
                l(4) =   1
                l(5) =   2
                l(6) =   2
     Q(r) pseudized with 0 coefficients

     PseudoPot. # 2 for  O read from file:
     /home/raja/pseudo/O.pbesol-nl-rrkjus.UPF
     MD5 check sum: c80495934389d02e713646931b6a7a51
     Pseudo is Ultrasoft + core correction, Zval =  6.0
     Generated using "atomic" code by A. Dal Corso  v.5.4.0
     Using radial grid of 1095 points,  4 beta functions with:
                l(1) =   0
                l(2) =   0
                l(3) =   1
                l(4) =   1
     Q(r) pseudized with 0 coefficients

     atomic species   valence    mass     pseudopotential
        Sn            14.00   118.71000     Sn( 1.00)
        O              6.00    15.99900      O( 1.00)

      8 Sym. Ops., with inversion, found

   Cartesian axes

     site n.     atom                  positions (alat units)
         1           Sn  tau(   1) = (   0.0000000   0.0000000   0.0000000  )
         2           Sn  tau(   2) = (   0.5000000   0.0000000   0.0000000  )
         3           Sn  tau(   3) = (   0.0000000   0.5000000   0.0000000  )
         4           Sn  tau(   4) = (   0.5000000   0.5000000   0.0000000  )
         5           Sn  tau(   5) = (   0.0000000   0.0000000   0.3365000  )
         6           Sn  tau(   6) = (   0.5000000   0.0000000   0.3365000  )
         7           Sn  tau(   7) = (   0.0000000   0.5000000   0.3365000  )
         8           Sn  tau(   8) = (   0.5000000   0.5000000   0.3365000  )
         9           Sn  tau(   9) = (   0.2500000   0.2500000   0.1682500  )
        10           Sn  tau(  10) = (   0.7500000   0.2500000   0.1682500  )
        11           Sn  tau(  11) = (   0.2500000   0.7500000   0.1682500  )
        12           Sn  tau(  12) = (   0.7500000   0.7500000   0.1682500  )
        13           Sn  tau(  13) = (   0.2500000   0.2500000   0.5047500  )
        14           Sn  tau(  14) = (   0.7500000   0.2500000   0.5047500  )
        15           Sn  tau(  15) = (   0.2500000   0.7500000   0.5047500  )
        16           Sn  tau(  16) = (   0.7500000   0.7500000   0.5047500  )
        17           O   tau(  17) = (   0.1535000   0.1535000   0.0000000  )
        18           O   tau(  18) = (   0.6535000   0.1535000   0.0000000  )
        19           O   tau(  19) = (   0.1535000   0.6535000   0.0000000  )
        20           O   tau(  20) = (   0.6535000   0.6535000   0.0000000  )
        21           O   tau(  21) = (   0.1535000   0.1535000   0.3365000  )
        22           O   tau(  22) = (   0.6535000   0.1535000   0.3365000  )
        23           O   tau(  23) = (   0.1535000   0.6535000   0.3365000  )
        24           O   tau(  24) = (   0.6535000   0.6535000   0.3365000  )
        25           O   tau(  25) = (   0.3465000   0.3465000   0.0000000  )
        26           O   tau(  26) = (   0.8465000   0.3465000   0.0000000  )
        27           O   tau(  27) = (   0.3465000   0.8465000   0.0000000  )
        28           O   tau(  28) = (   0.8465000   0.8465000   0.0000000  )
        29           O   tau(  29) = (   0.3465000   0.3465000   0.3365000  )
        30           O   tau(  30) = (   0.8465000   0.3465000   0.3365000  )
        31           O   tau(  31) = (   0.3465000   0.8465000   0.3365000  )
        32           O   tau(  32) = (   0.8465000   0.8465000   0.3365000  )
        33           O   tau(  33) = (   0.0965000   0.4035000   0.1682500  )
        34           O   tau(  34) = (   0.5965000   0.4035000   0.1682500  )
        35           O   tau(  35) = (   0.0965000   0.9035000   0.1682500  )
        36           O   tau(  36) = (   0.5965000   0.9035000   0.1682500  )
        37           O   tau(  37) = (   0.0965000   0.4035000   0.5047500  )
        38           O   tau(  38) = (   0.5965000   0.4035000   0.5047500  )
        39           O   tau(  39) = (   0.0965000   0.9035000   0.5047500  )
        40           O   tau(  40) = (   0.5965000   0.9035000   0.5047500  )
        41           O   tau(  41) = (   0.4035000   0.0965000   0.1682500  )
        42           O   tau(  42) = (   0.9035000   0.0965000   0.1682500  )
        43           O   tau(  43) = (   0.4035000   0.5965000   0.1682500  )
        44           O   tau(  44) = (   0.9035000   0.5965000   0.1682500  )
        45           O   tau(  45) = (   0.4035000   0.0965000   0.5047500  )
        46           O   tau(  46) = (   0.9035000   0.0965000   0.5047500  )
        47           O   tau(  47) = (   0.4035000   0.5965000   0.5047500  )
        48           O   tau(  48) = (   0.9035000   0.5965000   0.5047500  )

     number of k points=    60
                       cart. coord. in units 2pi/alat
        k(    1) = (   0.0833333   0.0833333   0.0742942), wk =   0.0222222
        k(    2) = (   0.0833333   0.0833333   0.2228826), wk =   0.0222222
        k(    3) = (   0.0833333   0.0833333   0.3714710), wk =   0.0222222
        k(    4) = (   0.0833333   0.0833333   0.5200594), wk =   0.0222222
        k(    5) = (   0.0833333   0.0833333   0.6686478), wk =   0.0222222
        k(    6) = (   0.0833333   0.2500000   0.0742942), wk =   0.0444444
        k(    7) = (   0.0833333   0.2500000   0.2228826), wk =   0.0444444
        k(    8) = (   0.0833333   0.2500000   0.3714710), wk =   0.0444444
        k(    9) = (   0.0833333   0.2500000   0.5200594), wk =   0.0444444
        k(   10) = (   0.0833333   0.2500000   0.6686478), wk =   0.0444444
        k(   11) = (   0.0833333   0.4166667   0.0742942), wk =   0.0444444
        k(   12) = (   0.0833333   0.4166667   0.2228826), wk =   0.0444444
        k(   13) = (   0.0833333   0.4166667   0.3714710), wk =   0.0444444
        k(   14) = (   0.0833333   0.4166667   0.5200594), wk =   0.0444444
        k(   15) = (   0.0833333   0.4166667   0.6686478), wk =   0.0444444
        k(   16) = (   0.2500000   0.2500000   0.0742942), wk =   0.0222222
        k(   17) = (   0.2500000   0.2500000   0.2228826), wk =   0.0222222
        k(   18) = (   0.2500000   0.2500000   0.3714710), wk =   0.0222222
        k(   19) = (   0.2500000   0.2500000   0.5200594), wk =   0.0222222
        k(   20) = (   0.2500000   0.2500000   0.6686478), wk =   0.0222222
        k(   21) = (   0.2500000   0.4166667   0.0742942), wk =   0.0444444
        k(   22) = (   0.2500000   0.4166667   0.2228826), wk =   0.0444444
        k(   23) = (   0.2500000   0.4166667   0.3714710), wk =   0.0444444
        k(   24) = (   0.2500000   0.4166667   0.5200594), wk =   0.0444444
        k(   25) = (   0.2500000   0.4166667   0.6686478), wk =   0.0444444
        k(   26) = (   0.4166667   0.4166667   0.0742942), wk =   0.0222222
        k(   27) = (   0.4166667   0.4166667   0.2228826), wk =   0.0222222
        k(   28) = (   0.4166667   0.4166667   0.3714710), wk =   0.0222222
        k(   29) = (   0.4166667   0.4166667   0.5200594), wk =   0.0222222
        k(   30) = (   0.4166667   0.4166667   0.6686478), wk =   0.0222222
        k(   31) = (  -0.0833333   0.0833333  -0.0742942), wk =   0.0222222
        k(   32) = (  -0.0833333   0.0833333  -0.2228826), wk =   0.0222222
        k(   33) = (  -0.0833333   0.0833333  -0.3714710), wk =   0.0222222
        k(   34) = (  -0.0833333   0.0833333  -0.5200594), wk =   0.0222222
        k(   35) = (  -0.0833333   0.0833333  -0.6686478), wk =   0.0222222
        k(   36) = (  -0.0833333   0.2500000  -0.0742942), wk =   0.0444444
        k(   37) = (  -0.0833333   0.2500000  -0.2228826), wk =   0.0444444
        k(   38) = (  -0.0833333   0.2500000  -0.3714710), wk =   0.0444444
        k(   39) = (  -0.0833333   0.2500000  -0.5200594), wk =   0.0444444
        k(   40) = (  -0.0833333   0.2500000  -0.6686478), wk =   0.0444444
        k(   41) = (  -0.0833333   0.4166667  -0.0742942), wk =   0.0444444
        k(   42) = (  -0.0833333   0.4166667  -0.2228826), wk =   0.0444444
        k(   43) = (  -0.0833333   0.4166667  -0.3714710), wk =   0.0444444
        k(   44) = (  -0.0833333   0.4166667  -0.5200594), wk =   0.0444444
        k(   45) = (  -0.0833333   0.4166667  -0.6686478), wk =   0.0444444
        k(   46) = (  -0.2500000   0.2500000  -0.0742942), wk =   0.0222222
        k(   47) = (  -0.2500000   0.2500000  -0.2228826), wk =   0.0222222
        k(   48) = (  -0.2500000   0.2500000  -0.3714710), wk =   0.0222222
        k(   49) = (  -0.2500000   0.2500000  -0.5200594), wk =   0.0222222
        k(   50) = (  -0.2500000   0.2500000  -0.6686478), wk =   0.0222222
        k(   51) = (  -0.2500000   0.4166667  -0.0742942), wk =   0.0444444
        k(   52) = (  -0.2500000   0.4166667  -0.2228826), wk =   0.0444444
        k(   53) = (  -0.2500000   0.4166667  -0.3714710), wk =   0.0444444
        k(   54) = (  -0.2500000   0.4166667  -0.5200594), wk =   0.0444444
        k(   55) = (  -0.2500000   0.4166667  -0.6686478), wk =   0.0444444
        k(   56) = (  -0.4166667   0.4166667  -0.0742942), wk =   0.0222222
        k(   57) = (  -0.4166667   0.4166667  -0.2228826), wk =   0.0222222
        k(   58) = (  -0.4166667   0.4166667  -0.3714710), wk =   0.0222222
        k(   59) = (  -0.4166667   0.4166667  -0.5200594), wk =   0.0222222
        k(   60) = (  -0.4166667   0.4166667  -0.6686478), wk =   0.0222222

     Largest allocated arrays     est. size (Mb)     dimensions
     Largest temporary arrays     est. size (Mb)     dimensions

     Initial potential from superposition of free atoms

     starting charge  415.97986, renormalised to  416.00000
     Starting wfc are  272 randomized atomic wfcs

     Self-consistent Calculation

     iteration #  1     ecut=    60.00 Ry     beta=0.70
     Davidson diagonalization with overlap
     ethr =  1.00E-02,  avg # of iterations =  3.0

     total energy              =   -3632.51136193 Ry
     Harris-Foulkes estimate   =   -3641.52539223 Ry
     estimated scf accuracy    <      11.99916694 Ry

[...]

     iteration #  4     ecut=    60.00 Ry     beta=0.70
     Davidson diagonalization with overlap
     c_bands:  1 eigenvalues not converged
     c_bands:  1 eigenvalues not converged
     c_bands:  1 eigenvalues not converged
     ethr =  9.94E-06,  avg # of iterations =  9.3

[...]

     total energy              =   -3638.20115370 Ry
     Harris-Foulkes estimate   =   -3638.20115372 Ry
     estimated scf accuracy    <       0.00000006 Ry

     iteration # 10     ecut=    60.00 Ry     beta=0.70
     Davidson diagonalization with overlap
     ethr =  1.44E-11,  avg # of iterations =  2.0

     End of self-consistent calculation

          k = 0.0833 0.0833 0.0743 ( 31834 PWs)   bands (ev):

   -12.2458 -12.1825 -12.1825 -12.1749 -12.1749 -12.0493 -12.0389 -12.0345
   -12.0238 -12.0142 -12.0031 -11.9873 -11.9873 -11.8983 -11.8983 -11.6252
   -11.6156 -11.5949 -11.5927 -11.5549 -11.3857 -11.3856 -11.3775 -11.3770
   -11.3770 -11.3746 -11.3746 -11.3702 -11.3702 -11.3622 -11.3610 -11.3591
   -11.3587 -11.3540 -11.3524 -11.3439 -11.3439 -11.3406 -11.3406 -11.2835
   -11.2509 -11.2430 -11.2430 -11.2421 -11.2420 -11.2416 -11.2416 -11.2397
   -11.2395 -11.2167 -11.2167 -11.2094 -11.2080 -11.2075 -11.2075 -11.2011
   -11.1955 -11.1943 -11.1940 -11.1931 -11.1931 -11.1924 -11.1924 -11.1792
   -11.1580 -11.1538 -11.1537 -11.1532 -11.1531 -11.1501 -11.1496 -11.1493
   -11.1471 -11.1466 -11.1457 -11.1452 -11.1423 -11.1423 -11.1409 -11.1409
    -9.8695  -9.2520  -9.2520  -9.0309  -9.0309  -8.5280  -8.5280  -8.4868
    -8.4868  -8.4744  -8.4442  -8.2378  -8.2098  -8.1587  -8.1531  -8.1338
    -8.1050  -8.1033  -7.9726  -7.3028  -7.3028  -7.0947  -7.0947  -6.8805
    -6.8618  -6.8084  -6.7928  -6.6450  -6.6450  -6.6321  -6.6321  -6.5827
     0.7325   0.9030   0.9264   1.4422   1.7802   1.7908   1.7908   1.8724
     1.8724   2.0520   2.0520   2.5281   2.5281   3.0793   3.1911   3.3461
     3.3461   3.4294   3.4294   3.9095   3.9101   4.5806   4.6133   4.6426
     4.6426   4.6873   4.6873   4.7519   4.8053   4.8178   4.9112   4.9674
     5.0538   5.0946   5.4376   5.4376   5.6816   5.6816   5.7581   5.7832
     5.8132   5.8132   5.8202   5.8212   6.1186   6.1186   6.1473   6.2107
     6.2891   6.3231   6.6665   6.7202   6.7319   6.7319   6.7992   6.8192
     6.8530   6.9494   6.9494   7.0692   7.0692   7.1028   7.1028   7.1129
     7.3448   7.4410   7.4515   7.4602   7.4701   7.5269   7.5269   7.5401
     7.5401   7.5697   7.5824   7.7254   7.7254   7.7629   7.7629   7.8292
     7.8348   7.9126   7.9238   7.9529   7.9654   7.9654   7.9802   7.9885
     8.0093   8.0093   8.0517   8.1359   8.1359   8.1892   8.1892   8.7485
     9.5517  12.3401  12.3401  12.8859  12.8859  12.9329  13.0009  13.1122
    13.1242  14.1707  14.3087  14.4782  14.4782  14.4896  14.5665  14.5665
    14.7415  14.7432  15.4179  15.4179  15.4646  15.4646  15.8075  15.8101
    16.2960  16.2961  16.4263  16.4263  17.2099  17.2947  17.7475  18.1522
    18.6004  18.8841  18.9343  19.0223  19.0413  19.0413  19.1180  19.1180
    19.1474  19.1480  19.1801  19.1903  19.1903  19.2064  19.2221  19.2222

[...]

          k = 0.4167 0.4167 0.6686 ( 31835 PWs)   bands (ev):

[...]

          k =-0.0833 0.0833-0.0743 ( 31834 PWs)   bands (ev):

[...]

          k =-0.4167 0.4167-0.6686 ( 31835 PWs)   bands (ev):

   -12.0150 -12.0142 -12.0109 -12.0109 -11.9975 -11.9933 -11.9933 -11.9711
   -11.8315 -11.8315 -11.7916 -11.7908 -11.7908 -11.7861 -11.7839 -11.7662
   -11.7656 -11.7555 -11.7153 -11.7152 -11.6819 -11.6801 -11.6638 -11.6637
   -11.4928 -11.4603 -11.4603 -11.4582 -11.4348 -11.4188 -11.4188 -11.3920
   -11.3019 -11.2997 -11.2997 -11.2983 -11.2786 -11.2771 -11.2771 -11.2766
   -11.2753 -11.2736 -11.2736 -11.2715 -11.2578 -11.2572 -11.2572 -11.2561
   -11.2246 -11.2220 -11.2202 -11.2202 -11.2188 -11.2188 -11.2168 -11.2167
   -11.2028 -11.2021 -11.2021 -11.2019 -11.1972 -11.1969 -11.1961 -11.1958
   -11.1958 -11.1958 -11.1958 -11.1939 -11.1897 -11.1876 -11.1875 -11.1871
   -11.1864 -11.1864 -11.1861 -11.1859 -11.1850 -11.1834 -11.1834 -11.1830
    -9.3181  -9.1901  -9.1786  -9.1786  -9.0613  -9.0613  -9.0313  -8.9229
    -8.0738  -8.0738  -8.0617  -8.0397  -8.0276  -8.0276  -7.9177  -7.8802
    -7.5928  -7.5682  -7.5096  -7.5096  -7.3878  -7.3646  -7.3252  -7.3252
    -6.9334  -6.8657  -6.8475  -6.8475  -6.8043  -6.8043  -6.7982  -6.7821
     1.2385   1.2597   1.4160   1.4160   1.4809   1.4809   1.5220   1.6493
     2.3916   2.6577   2.6577   2.6821   2.9256   2.9256   2.9570   3.2223
     3.9462   3.9763   3.9763   4.1318   4.2746   4.2746   4.2941   4.3548
     4.9027   4.9027   4.9499   4.9499   5.0292   5.0682   5.1271   5.1786
     5.1786   5.2451   5.2868   5.2910   5.2932   5.3198   5.4840   5.4925
     5.4925   5.5069   5.5133   5.5134   5.5397   5.6018   5.6404   5.6404
     5.8952   6.0121   6.0598   6.0858   6.1374   6.1375   6.1382   6.1382
     6.8664   6.9166   7.0476   7.0476   7.0957   7.0957   7.2028   7.2561
     7.2584   7.2947   7.4148   7.4148   7.4422   7.4422   7.4678   7.5603
     7.5826   7.5950   7.6375   7.6375   7.7335   7.7335   7.7697   7.8226
     7.9371   7.9371   7.9397   7.9487   7.9729   7.9751   7.9751   7.9855
     8.2215   8.2270   8.2270   8.2406   8.2848   8.3084   8.3084   8.3480
    12.3370  12.5925  12.5925  12.7616  12.7678  12.9403  12.9403  13.0353
    14.0172  14.1030  14.2473  14.2473  14.3670  14.3670  14.4968  14.6237
    16.6464  16.7047  16.7767  16.7767  16.7913  16.7913  16.8417  16.8823
    16.9325  16.9982  16.9983  17.0596  17.2135  17.2398  17.2398  17.2414
    17.2679  17.3068  17.3166  17.3166  17.3395  17.3395  17.4157  17.4278
    19.0471  19.0471  19.1621  19.1621  19.1650  19.2718  19.3467  19.4542

     highest occupied, lowest unoccupied level (ev):     8.7485    9.5517

!    total energy              =   -3638.20115371 Ry
     Harris-Foulkes estimate   =   -3638.20115371 Ry
     estimated scf accuracy    <          1.6E-09 Ry

     The total energy is the sum of the following terms:

     one-electron contribution =   -1067.58035781 Ry
     hartree contribution      =     849.87882463 Ry
     xc contribution           =   -1000.90212500 Ry
     ewald contribution        =   -2419.59749552 Ry

     convergence has been achieved in  10 iterations

     Forces acting on atoms (Ry/au):

     atom    1 type  1   force =     0.00000000    0.00000000    0.00000000
     atom    2 type  1   force =     0.00000000    0.00000000    0.00000000
     atom    3 type  1   force =     0.00000000    0.00000000    0.00000000
     atom    4 type  1   force =     0.00000000    0.00000000    0.00000000
     atom    5 type  1   force =     0.00000000    0.00000000    0.00000000
     atom    6 type  1   force =     0.00000000    0.00000000    0.00000000
     atom    7 type  1   force =     0.00000000    0.00000000    0.00000000
     atom    8 type  1   force =     0.00000000    0.00000000    0.00000000
     atom    9 type  1   force =     0.00000063    0.00000063   -0.00000074
     atom   10 type  1   force =    -0.00000184    0.00000184   -0.00001206
     atom   11 type  1   force =     0.00000184   -0.00000184   -0.00001206
     atom   12 type  1   force =    -0.00000063   -0.00000063   -0.00000074
     atom   13 type  1   force =     0.00000063    0.00000063    0.00000074
     atom   14 type  1   force =    -0.00000184    0.00000184    0.00001206
     atom   15 type  1   force =     0.00000184   -0.00000184    0.00001206
     atom   16 type  1   force =    -0.00000063   -0.00000063    0.00000074
     atom   17 type  2   force =    -0.00081982   -0.00081982   -0.00000000
     atom   18 type  2   force =    -0.00082055   -0.00082001    0.00000000
     atom   19 type  2   force =    -0.00082001   -0.00082055   -0.00000000
     atom   20 type  2   force =    -0.00082024   -0.00082024    0.00000000
     atom   21 type  2   force =    -0.00082064   -0.00082064    0.00000000
     atom   22 type  2   force =    -0.00082053   -0.00082066    0.00000000
     atom   23 type  2   force =    -0.00082066   -0.00082053    0.00000000
     atom   24 type  2   force =    -0.00082033   -0.00082033    0.00000000
     atom   25 type  2   force =     0.00082024    0.00082024    0.00000000
     atom   26 type  2   force =     0.00082001    0.00082055   -0.00000000
     atom   27 type  2   force =     0.00082055    0.00082001    0.00000000
     atom   28 type  2   force =     0.00081982    0.00081982    0.00000000
     atom   29 type  2   force =     0.00082033    0.00082033    0.00000000
     atom   30 type  2   force =     0.00082066    0.00082053    0.00000000
     atom   31 type  2   force =     0.00082053    0.00082066    0.00000000
     atom   32 type  2   force =     0.00082064    0.00082064    0.00000000
     atom   33 type  2   force =     0.00082092   -0.00082083   -0.00000018
     atom   34 type  2   force =     0.00081957   -0.00081957   -0.00000064
     atom   35 type  2   force =     0.00082000   -0.00082000   -0.00000023
     atom   36 type  2   force =     0.00082083   -0.00082092   -0.00000018
     atom   37 type  2   force =     0.00082092   -0.00082083    0.00000018
     atom   38 type  2   force =     0.00081957   -0.00081957    0.00000064
     atom   39 type  2   force =     0.00082000   -0.00082000    0.00000023
     atom   40 type  2   force =     0.00082083   -0.00082092    0.00000018
     atom   41 type  2   force =    -0.00082083    0.00082092   -0.00000018
     atom   42 type  2   force =    -0.00082000    0.00082000   -0.00000023
     atom   43 type  2   force =    -0.00081957    0.00081957   -0.00000064
     atom   44 type  2   force =    -0.00082092    0.00082083   -0.00000018
     atom   45 type  2   force =    -0.00082083    0.00082092    0.00000018
     atom   46 type  2   force =    -0.00082000    0.00082000    0.00000023
     atom   47 type  2   force =    -0.00081957    0.00081957    0.00000064
     atom   48 type  2   force =    -0.00082092    0.00082083    0.00000018

     Total force =     0.006563     Total SCF correction =     0.000044

     entering subroutine stress ...

          total   stress  (Ry/bohr**3)                   (kbar)     P=  -51.86
  -0.00033952   0.00000001   0.00000000        -49.94      0.00      0.00
   0.00000001  -0.00033952   0.00000000          0.00    -49.94      0.00
   0.00000000   0.00000000  -0.00037858          0.00      0.00    -55.69

     General routines

     Parallel routines

   This run was terminated on:  18: 6: 1  11May2018

   JOB DONE.